6 12
26 20
26 20
26 20
29 20
29 20
69 20
69 21
78 20
78 20
79 20
79 20
60 21
60 21
60 21
60 21
62 21
62 22
65 21
65 22
67 21
68 21
68 21
68 21
69 21
69 21
75 21
75 21
90 21
90 22
61 22
61 22
27 22
27 22
63 22
63 22
65 22
65 22
68 22
68 22
60 22
60 22
60 22
60 22
26 22
26 22
79 22
79 22
90 22
90 22
96 22
96 23
61 23
61 23
66 23
66 23
66 23
66 23
26 23
26 23
67 23
67 23
68 23
68 23
68 23
68 23
25 23
25 23
79 23
79 22
91 23
91 23
95 23
95 23
64 24
65 24
64 24
62 24
67 24
67 24
67 24
67 24
67 24
67 24
65 24
65 24
68 24
68 24
68 24
68 24
62 24
62 24
69 24
68 24
98 24
98 24
99 24
99 24
99 24
99 24
68 25
68 25
68 25
68 25
65 25
65 25
60 25
60 25
60 25
60 25
90 25
90 25
69 26
69 26
61 26
61 26
71 26
71 26
73 26
73 26
73 26
73 26
75 26
75 26
65 26
65 26
60 26
60 26
22 26
22 26
63 26
63 26
96 26
98 26
98 26
98 26
98 26
98 26
66 27
66 27
25 27
25 26
63 27
63 27
65 27
65 27
91 27
91 27
92 27
92 27
92 27
92 27
69 27
69 27
66 27
66 27
68 27
68 27
61 27
61 26
98 27
98 26
65 27
65 27
68 28
68 28
64 28
64 28
71 28
71 26
75 28
75 28
94 28
92 28
75 28
75 28
68 28
68 28
68 28
68 28
63 29
63 29
66 29
67 29
92 29
92 28
78 29
75 29
68 29
68 29
21 29
22 26
62 29
63 29
74 29
75 29
67 29
67 29
67 29
67 29
26 20
27 20
27 20
27 22
27 22
27 22
29 20
27 20
61 22
60 22
62 22
61 22
63 22
62 22
65 22
63 22
65 24
65 22
67 24
65 24
65 24
65 24
65 24
65 24
65 25
65 24
64 27
65 27
65 27
65 26
65 27
65 27
65 27
65 27
66 27
65 27
69 26
69 27
71 26
69 26
78 20
75 21
79 20
78 20
90 22
79 22
90 22
90 22
90 23
90 22
91 23
90 23
96 23
95 23
95 23
91 23
99 24
98 24
98 24
98 24
98 24
96 23
98 26
98 24
98 26
98 26
98 26
98 26
79 22
79 22
90 25
90 23
79 22
79 20
91 27
90 25
92 27
91 27
92 27
92 27
92 28
92 27
75 21
75 26
71 26
71 26
73 26
73 26
75 26
73 26
75 26
75 26
75 28
75 26
75 28
75 28
75 29
75 28
73 26
71 26
69 27
68 27
68 27
66 27
68 27
68 27
68 28
68 27
68 28
68 28
68 29
68 28
67 29
68 29
67 29
67 29
68 28
68 28
65 26
65 25
63 27
64 27
64 28
64 27
63 29
64 28
60 25
60 26
61 26
61 26
60 26
61 26
63 26
63 27
61 26
63 26
68 24
67 24
67 23
67 24
68 23
67 23
67 24
67 24
67 24
67 24
68 22
68 23
69 21
68 21
68 21
68 21
68 21
68 22
66 23
67 23
68 24
68 24
68 24
68 24
68 25
68 24
61 23
61 22
60 21
29 20
60 21
60 21
60 22
60 21
60 22
60 22
62 24
61 23
26 20
26 20
26 20
26 20
26 20
26 20
26 20
26 20
26 20
26 20
26 20
26 20
26 22
27 22
26 23
26 22
25 23
26 23
25 26
25 23
22 26
25 26
